(set-option :print-success false)
(set-logic QF_UF)
(declare-sort x123 0)
(declare-sort x10 0)
(declare-fun x59 () x10)
(declare-fun x143 () x10)
(declare-fun x96 () x10)
(declare-fun x43 (x10 x10) x10)
(declare-fun x41 () x10)
(declare-fun x7 () x10)
(assert (not (and (and (= x96 (x43 x143 x143)) (and (= x41 (x43 x7 x143)) (= (x43 x59 x59) x7))) (= x59 (x43 x143 x96)))))
(assert (not (and (= x41 (x43 x7 x96)) (and (and (= (x43 x143 x7) x59) (= (x43 x41 x41) x143)) (= (x43 x7 x7) x96)))))
(assert (not (and (= x143 (x43 x7 x59)) (and (= x59 (x43 x7 x7)) (and (= x41 (x43 x96 x7)) (= (x43 x143 x143) x96))))))
(assert (not (and (and (= x96 (x43 x59 x59)) (and (= (x43 x143 x59) x7) (= (x43 x41 x41) x143))) (= x41 (x43 x59 x96)))))
(assert (not (and (= x96 (x43 x59 x41)) (and (= (x43 x59 x59) x41) (and (= (x43 x143 x59) x7) (= x143 (x43 x96 x96)))))))
(assert (not (and (and (and (= x59 (x43 x96 x143)) (= x96 (x43 x41 x41))) (= (x43 x143 x143) x7)) (= x41 (x43 x143 x7)))))
(assert (let ((x54 (x43 x59 x59)) (x20 (x43 x7 x7)) (x48 (x43 x41 x41)) (x71 (x43 x96 x96)) (x95 (x43 x143 x143))) (or (and (not (= x7 x20)) (and (not (= x54 x7)) (and (and (not (= x95 x7)) (not (= x7 x71))) (not (= x7 x48))))) (or (or (and (not (= x41 x20)) (and (and (and (not (= x41 x95)) (not (= x71 x41))) (not (= x41 x48))) (not (= x41 x54)))) (or (and (not (= x20 x96)) (and (and (not (= x48 x96)) (and (not (= x71 x96)) (not (= x96 x95)))) (not (= x54 x96)))) (and (and (and (not (= x143 x48)) (and (not (= x143 x95)) (not (= x71 x143)))) (not (= x54 x143))) (not (= x143 x20))))) (and (not (= x59 x20)) (and (not (= x54 x59)) (and (not (= x59 x48)) (and (not (= x95 x59)) (not (= x59 x71))))))))))
(assert (not (and (and (and (= (x43 x59 x59) x96) (= (x43 x96 x41) x7)) (= (x43 x41 x41) x143)) (= x59 (x43 x41 x143)))))
(assert (not (and (= x59 (x43 x7 x41)) (and (= x41 (x43 x7 x7)) (and (= x96 (x43 x143 x7)) (= (x43 x59 x59) x143))))))
(assert (not (and (and (and (= (x43 x59 x59) x41) (= x143 (x43 x41 x96))) (= x7 (x43 x96 x96))) (= (x43 x96 x7) x59))))
(assert (not (and (and (and (= (x43 x41 x143) x7) (= x41 (x43 x59 x59))) (= x96 (x43 x143 x143))) (= x59 (x43 x143 x96)))))
(assert (not (and (and (and (= (x43 x7 x59) x41) (= x7 (x43 x96 x96))) (= (x43 x59 x59) x143)) (= (x43 x59 x143) x96))))
(assert (not (and (and (and (= x59 (x43 x7 x7)) (= x41 (x43 x59 x96))) (= (x43 x96 x96) x143)) (= (x43 x96 x143) x7))))
(assert (not (and (and (and (= (x43 x143 x41) x96) (= (x43 x7 x7) x143)) (= x59 (x43 x41 x41))) (= x7 (x43 x41 x59)))))
(assert (not (and (and (= x59 (x43 x96 x96)) (and (= x143 (x43 x41 x96)) (= x41 (x43 x7 x7)))) (= x7 (x43 x96 x59)))))
(assert (not (and (and (and (= (x43 x59 x96) x7) (= (x43 x143 x143) x59)) (= x41 (x43 x96 x96))) (= (x43 x96 x41) x143))))
(assert (not (and (= (x43 x96 x143) x7) (and (and (= x41 (x43 x7 x7)) (= (x43 x41 x96) x59)) (= x143 (x43 x96 x96))))))
(assert (not (and (and (= (x43 x59 x59) x41) (and (= (x43 x7 x7) x143) (= (x43 x143 x59) x96))) (= (x43 x59 x41) x7))))
(assert (or (and (not (= (x43 x7 x7) x7)) (and (and (and (not (= x96 (x43 x96 x7))) (not (= (x43 x143 x7) x143))) (not (= x41 (x43 x41 x7)))) (not (= x59 (x43 x59 x7))))) (or (and (not (= (x43 x7 x59) x7)) (and (and (and (not (= x143 (x43 x143 x59))) (not (= (x43 x96 x59) x96))) (not (= x41 (x43 x41 x59)))) (not (= (x43 x59 x59) x59)))) (or (or (and (and (and (and (not (= x96 (x43 x96 x143))) (not (= (x43 x143 x143) x143))) (not (= (x43 x41 x143) x41))) (not (= (x43 x59 x143) x59))) (not (= (x43 x7 x143) x7))) (and (and (not (= (x43 x59 x96) x59)) (and (and (not (= (x43 x143 x96) x143)) (not (= x96 (x43 x96 x96)))) (not (= x41 (x43 x41 x96))))) (not (= (x43 x7 x96) x7)))) (and (not (= (x43 x7 x41) x7)) (and (not (= (x43 x59 x41) x59)) (and (not (= x41 (x43 x41 x41))) (and (not (= x96 (x43 x96 x41))) (not (= (x43 x143 x41) x143))))))))))
(assert (not (and (and (= (x43 x96 x96) x41) (and (= (x43 x59 x59) x7) (= (x43 x7 x96) x143))) (= x59 (x43 x96 x41)))))
(assert (not (and (= (x43 x7 x96) x41) (and (and (= x59 (x43 x41 x41)) (= (x43 x59 x7) x143)) (= (x43 x7 x7) x96)))))
(assert (not (and (and (and (= (x43 x41 x41) x59) (= x143 (x43 x59 x96))) (= x7 (x43 x96 x96))) (= x41 (x43 x96 x7)))))
(assert (not (and (and (and (= x59 (x43 x96 x96)) (= (x43 x59 x41) x143)) (= x7 (x43 x41 x41))) (= (x43 x41 x7) x96))))
(assert (not (and (and (and (= x59 (x43 x7 x41)) (= x7 (x43 x143 x143))) (= x96 (x43 x41 x41))) (= x143 (x43 x41 x96)))))
(assert (not (and (= (x43 x96 x7) x143) (and (= x7 (x43 x96 x96)) (and (= x41 (x43 x59 x96)) (= (x43 x143 x143) x59))))))
(assert (not (and (= (x43 x96 x7) x41) (and (and (= (x43 x143 x96) x59) (= (x43 x41 x41) x143)) (= x7 (x43 x96 x96))))))
(assert (not (and (and (= x59 (x43 x96 x96)) (and (= x7 (x43 x41 x96)) (= x41 (x43 x143 x143)))) (= x143 (x43 x96 x59)))))
(assert (not (and (and (= (x43 x7 x7) x96) (and (= x41 (x43 x59 x7)) (= x59 (x43 x143 x143)))) (= (x43 x7 x96) x143))))
(assert (not (and (= x7 (x43 x41 x143)) (and (and (= (x43 x7 x7) x96) (= x59 (x43 x96 x41))) (= x143 (x43 x41 x41))))))
(assert (not (and (and (and (= (x43 x59 x59) x96) (= x41 (x43 x96 x143))) (= x7 (x43 x143 x143))) (= x59 (x43 x143 x7)))))
(assert (not (and (and (= (x43 x7 x7) x41) (and (= x143 (x43 x96 x7)) (= x96 (x43 x59 x59)))) (= (x43 x7 x41) x59))))
(assert (not (and (= x41 (x43 x7 x59)) (and (and (= (x43 x41 x41) x143) (= x96 (x43 x143 x7))) (= x59 (x43 x7 x7))))))
(assert (not (and (= x143 (x43 x59 x96)) (and (and (= x41 (x43 x143 x143)) (= x7 (x43 x41 x59))) (= (x43 x59 x59) x96)))))
(assert (not (and (= x41 (x43 x96 x59)) (and (= x59 (x43 x96 x96)) (and (= (x43 x41 x41) x143) (= x7 (x43 x143 x96)))))))
(assert (not (and (= x41 (x43 x7 x143)) (and (= x143 (x43 x7 x7)) (and (= x96 (x43 x59 x7)) (= x59 (x43 x41 x41)))))))
(assert (not (and (and (= x96 (x43 x59 x59)) (and (= x41 (x43 x7 x7)) (= x143 (x43 x41 x59)))) (= x7 (x43 x59 x96)))))
(assert (not (and (= (x43 x143 x7) x96) (and (and (= (x43 x96 x96) x41) (= (x43 x41 x143) x59)) (= (x43 x143 x143) x7)))))
(assert (not (and (and (and (= x59 (x43 x143 x143)) (= x7 (x43 x59 x41))) (= (x43 x41 x41) x96)) (= (x43 x41 x96) x143))))
(assert (not (and (and (and (= x96 (x43 x59 x41)) (= x59 (x43 x7 x7))) (= (x43 x41 x41) x143)) (= (x43 x41 x143) x7))))
(assert (not (and (and (and (= x143 (x43 x96 x59)) (= x96 (x43 x41 x41))) (= (x43 x59 x59) x7)) (= (x43 x59 x7) x41))))
(assert (not (and (and (= (x43 x7 x7) x41) (and (= (x43 x143 x143) x59) (= x96 (x43 x59 x7)))) (= x143 (x43 x7 x41)))))
(assert (not (and (and (= (x43 x143 x143) x96) (and (= (x43 x7 x143) x59) (= x7 (x43 x41 x41)))) (= x41 (x43 x143 x96)))))
(assert (not (and (and (= (x43 x143 x143) x41) (and (= x59 (x43 x96 x96)) (= x7 (x43 x59 x143)))) (= (x43 x143 x41) x96))))
(assert (not (and (and (= x41 (x43 x7 x7)) (and (= x143 (x43 x59 x7)) (= x59 (x43 x96 x96)))) (= (x43 x7 x41) x96))))
(assert (not (and (and (= (x43 x7 x7) x143) (and (= (x43 x96 x96) x41) (= (x43 x41 x7) x59))) (= x96 (x43 x7 x143)))))
(assert (not (and (and (= (x43 x96 x96) x59) (and (= (x43 x143 x143) x7) (= x41 (x43 x7 x96)))) (= x143 (x43 x96 x59)))))
(assert (not (and (and (= (x43 x143 x143) x59) (and (= x7 (x43 x96 x143)) (= x96 (x43 x41 x41)))) (= x41 (x43 x143 x59)))))
(assert (let ((x129 (x43 x96 x96)) (x142 (x43 x7 x41)) (x19 (x43 x41 x59)) (x139 (x43 x59 x41)) (x48 (x43 x41 x143)) (x98 (x43 x59 x59)) (x138 (x43 x41 x96)) (x54 (x43 x59 x143)) (x44 (x43 x143 x96)) (x28 (x43 x7 x7)) (x34 (x43 x143 x7)) (x18 (x43 x96 x41)) (x93 (x43 x41 x7)) (x112 (x43 x41 x41)) (x17 (x43 x7 x59)) (x71 (x43 x96 x143)) (x82 (x43 x7 x96)) (x95 (x43 x143 x143)) (x13 (x43 x143 x41)) (x84 (x43 x59 x96)) (x20 (x43 x7 x143)) (x116 (x43 x59 x7)) (x118 (x43 x143 x59)) (x153 (x43 x96 x7)) (x3 (x43 x96 x59))) (and (and (and (and (and (not (= x139 x142)) (and (not (= x142 x112)) (and (not (= x139 x112)) (and (not (= x18 x142)) (and (and (and (and (and (not (= x13 x112)) (not (= x18 x13))) (not (= x139 x13))) (not (= x142 x13))) (not (= x112 x18))) (not (= x18 x139))))))) (and (and (not (= x82 x84)) (and (not (= x138 x82)) (and (and (and (and (and (and (not (= x44 x84)) (and (not (= x44 x138)) (not (= x44 x129)))) (not (= x44 x82))) (not (= x129 x138))) (not (= x84 x129))) (not (= x82 x129))) (not (= x138 x84))))) (and (and (and (and (not (= x20 x71)) (and (and (not (= x48 x71)) (and (not (= x95 x20)) (and (and (not (= x48 x95)) (not (= x71 x95))) (not (= x95 x54))))) (not (= x71 x54)))) (not (= x54 x48))) (not (= x48 x20))) (not (= x20 x54))))) (and (and (and (not (= x98 x19)) (and (not (= x17 x3)) (and (and (not (= x3 x19)) (and (not (= x17 x118)) (and (not (= x98 x118)) (and (not (= x3 x118)) (not (= x118 x19)))))) (not (= x98 x3))))) (not (= x19 x17))) (not (= x98 x17)))) (and (not (= x116 x28)) (and (not (= x93 x28)) (and (and (and (not (= x153 x116)) (and (not (= x93 x153)) (and (not (= x34 x28)) (and (not (= x34 x116)) (and (not (= x93 x34)) (not (= x34 x153))))))) (not (= x153 x28))) (not (= x116 x93)))))) (and (and (and (and (and (not (= x34 x118)) (and (and (and (and (and (and (and (and (not (= x13 x95)) (not (= x44 x95))) (not (= x118 x95))) (not (= x34 x95))) (not (= x13 x44))) (not (= x118 x44))) (not (= x44 x34))) (not (= x118 x13))) (not (= x13 x34)))) (and (and (not (= x153 x18)) (and (and (not (= x153 x129)) (and (and (and (not (= x153 x71)) (and (not (= x71 x3)) (and (not (= x129 x71)) (not (= x71 x18))))) (not (= x129 x18))) (not (= x3 x129)))) (not (= x3 x18)))) (not (= x153 x3)))) (and (and (not (= x112 x93)) (and (and (not (= x138 x93)) (and (and (not (= x112 x138)) (and (and (and (not (= x48 x138)) (not (= x48 x112))) (not (= x48 x19))) (not (= x48 x93)))) (not (= x19 x138)))) (not (= x19 x112)))) (not (= x19 x93)))) (and (and (and (and (not (= x116 x84)) (and (not (= x98 x84)) (and (not (= x84 x139)) (and (not (= x116 x54)) (and (and (not (= x84 x54)) (not (= x54 x139))) (not (= x54 x98))))))) (not (= x98 x139))) (not (= x139 x116))) (not (= x116 x98)))) (and (not (= x28 x17)) (and (not (= x28 x142)) (and (not (= x17 x142)) (and (not (= x28 x82)) (and (not (= x82 x17)) (and (and (not (= x28 x20)) (and (not (= x17 x20)) (and (not (= x20 x142)) (not (= x20 x82))))) (not (= x82 x142))))))))))))
(assert (let ((x153 (x43 x96 x7)) (x6 (x43 x7 x96)) (x91 (x43 x7 x59)) (x33 (x43 x7 x7)) (x20 (x43 x143 x59)) (x44 (x43 x143 x7)) (x21 (x43 x41 x41)) (x84 (x43 x41 x143)) (x48 (x43 x143 x96)) (x17 (x43 x96 x41)) (x71 (x43 x143 x143)) (x34 (x43 x96 x59)) (x54 (x43 x143 x41)) (x82 (x43 x59 x143)) (x51 (x43 x59 x59)) (x120 (x43 x59 x7)) (x1 (x43 x59 x41)) (x25 (x43 x7 x41)) (x60 (x43 x41 x7)) (x138 (x43 x96 x143)) (x13 (x43 x7 x143)) (x128 (x43 x59 x96)) (x98 (x43 x96 x96)) (x148 (x43 x41 x59)) (x28 (x43 x41 x96))) (let ((x117 (= x59 x98)) (x103 (= x7 x148)) (x70 (= x59 x21)) (x24 (= x7 x48)) (x118 (= x48 x143)) (x149 (= x13 x7)) (x42 (= x153 x41)) (x135 (= x143 x17)) (x110 (= x84 x41)) (x49 (= x128 x143)) (x102 (= x153 x59)) (x119 (= x96 x33)) (x87 (= x143 x120)) (x150 (= x60 x41)) (x106 (= x82 x96)) (x131 (= x59 x17)) (x125 (= x59 x148)) (x132 (= x59 x25)) (x130 (= x7 x51)) (x122 (= x41 x120)) (x88 (= x96 x51)) (x14 (= x96 x21)) (x111 (= x7 x34)) (x77 (= x59 x60)) (x35 (= x17 x96)) (x156 (= x148 x96)) (x101 (= x96 x91)) (x113 (= x96 x153)) (x147 (= x34 x41)) (x116 (= x98 x96)) (x29 (= x20 x143)) (x97 (= x60 x143)) (x145 (= x41 x98)) (x53 (= x34 x59)) (x158 (= x128 x59)) (x75 (= x44 x59)) (x15 (= x28 x7)) (x62 (= x143 x1)) (x133 (= x54 x143)) (x140 (= x96 x25)) (x104 (= x148 x143)) (x154 (= x120 x96)) (x95 (= x143 x71)) (x155 (= x6 x96)) (x115 (= x120 x7)) (x36 (= x44 x96)) (x64 (= x143 x33)) (x31 (= x143 x84)) (x30 (= x59 x28)) (x100 (= x6 x7)) (x5 (= x17 x7)) (x109 (= x96 x60)) (x11 (= x41 x54)) (x107 (= x21 x7)) (x47 (= x41 x1)) (x151 (= x51 x41)) (x8 (= x59 x51)) (x142 (= x138 x143)) (x27 (= x59 x20)) (x85 (= x148 x41)) (x3 (= x98 x143)) (x92 (= x25 x143)) (x4 (= x17 x41)) (x89 (= x13 x96)) (x61 (= x28 x143)) (x136 (= x48 x41)) (x152 (= x143 x51)) (x50 (= x128 x41)) (x18 (= x71 x41)) (x39 (= x153 x7)) (x16 (= x54 x7)) (x63 (= x59 x33)) (x112 (= x59 x71)) (x73 (= x20 x41)) (x9 (= x143 x13)) (x67 (= x82 x59)) (x26 (= x41 x6)) (x157 (= x91 x143)) (x93 (= x96 x48)) (x2 (= x143 x34)) (x124 (= x128 x96)) (x65 (= x59 x1)) (x83 (= x41 x138)) (x72 (= x41 x82)) (x137 (= x6 x59)) (x76 (= x1 x7)) (x139 (= x7 x71)) (x80 (= x143 x6)) (x32 (= x7 x82)) (x121 (= x91 x41)) (x108 (= x7 x60)) (x81 (= x59 x13)) (x126 (= x96 x28)) (x57 (= x41 x44)) (x146 (= x84 x96)) (x78 (= x21 x143)) (x74 (= x44 x7)) (x22 (= x54 x96)) (x90 (= x84 x59)) (x129 (= x96 x71)) (x79 (= x153 x143)) (x68 (= x54 x59)) (x40 (= x7 x138)) (x134 (= x143 x44)) (x66 (= x21 x41)) (x56 (= x7 x128)) (x45 (= x96 x1)) (x38 (= x20 x96)) (x99 (= x91 x59)) (x114 (= x7 x33)) (x94 (= x7 x91)) (x69 (= x33 x41)) (x52 (= x59 x138)) (x127 (= x41 x13)) (x23 (= x41 x25)) (x12 (= x59 x120)) (x19 (= x96 x138)) (x58 (= x28 x41)) (x141 (= x98 x7)) (x55 (= x7 x25)) (x105 (= x84 x7)) (x46 (= x143 x82)) (x86 (= x20 x7)) (x144 (= x34 x96)) (x37 (= x48 x59))) (and (and (and (and (and (and (and (or (or (or x90 (or x52 x112)) x67) x81) (or (or (or x68 (or x37 x112)) x27) x75)) (and (and (or (or x73 (or (or x136 x18) x11)) x57) (or (or x72 (or (or x18 x83) x110)) x127)) (and (and (or x36 (or x38 (or (or x129 x93) x22))) (or (or (or (or x129 x19) x146) x106) x89)) (and (or (or x46 (or x31 (or x142 x95))) x9) (or (or x29 (or (or x118 x95) x133)) x134))))) (and (or (or (or x16 (or x139 x24)) x86) x74) (or (or x32 (or (or x40 x139) x105)) x149))) (and (and (or (or x111 (or x5 (or x141 x40))) x39) (or (or (or (or x24 x141) x15) x56) x100)) (and (and (and (or (or x50 (or (or x145 x136) x58)) x26) (or (or (or (or x145 x83) x4) x147) x42)) (and (and (or (or (or x61 (or x118 x3)) x49) x80) (or (or (or x135 (or x142 x3)) x2) x79)) (and (or x113 (or x144 (or x35 (or x116 x19)))) (or x155 (or (or x126 (or x116 x93)) x124))))) (and (or x102 (or x53 (or (or x52 x117) x131))) (or x137 (or (or (or x117 x37) x30) x158)))))) (and (and (or (or (or x107 (or x5 x16)) x76) x55) (or (or x103 (or (or x15 x105) x107)) x108)) (and (and (and (and (or (or x45 (or (or x22 x35) x14)) x140) (or (or (or x14 (or x146 x126)) x156) x109)) (and (or x92 (or (or (or x133 x135) x78) x62)) (or (or (or (or x61 x31) x78) x104) x97))) (and (or x150 (or (or (or x58 x110) x66) x85)) (or (or x47 (or (or x11 x4) x66)) x23))) (and (or (or (or (or x68 x131) x70) x65) x132) (or (or (or x70 (or x90 x30)) x125) x77))))) (and (and (or (or (or x76 (or x56 x32)) x130) x115) (or x94 (or x130 (or (or x86 x111) x103)))) (and (and (and (or x122 (or x151 (or x47 (or x50 x72)))) (or (or (or x85 (or x73 x147)) x151) x121)) (and (and (or x154 (or x88 (or (or x106 x124) x45))) (or (or x88 (or x156 (or x144 x38))) x101)) (and (or x87 (or x152 (or x62 (or x46 x49)))) (or x157 (or (or x104 (or x29 x2)) x152))))) (and (or (or (or x65 (or x158 x67)) x8) x12) (or x99 (or x8 (or x125 (or x27 x53)))))))) (and (and (or x114 (or (or (or x39 x74) x108) x115)) (or x114 (or x94 (or (or x149 x100) x55)))) (and (and (or (or (or (or x81 x137) x132) x99) x63) (or x63 (or x12 (or (or x75 x102) x77)))) (and (and (or x69 (or (or (or x42 x57) x150) x122)) (or (or (or (or x26 x127) x23) x121) x69)) (and (and (or x64 (or (or (or x134 x79) x97) x87)) (or x64 (or (or x92 (or x80 x9)) x157))) (and (or (or (or (or x113 x36) x109) x154) x119) (or (or x101 (or x140 (or x89 x155))) x119))))))))))
(assert (not (and (and (and (= (x43 x143 x143) x41) (= x96 (x43 x41 x7))) (= (x43 x7 x7) x59)) (= (x43 x7 x59) x143))))
(assert (not (and (= (x43 x59 x7) x143) (and (= (x43 x59 x59) x7) (and (= (x43 x96 x59) x41) (= (x43 x143 x143) x96))))))
(assert (not (and (and (and (= x143 (x43 x7 x41)) (= x7 (x43 x59 x59))) (= x96 (x43 x41 x41))) (= x59 (x43 x41 x96)))))
(assert (not (and (and (= x143 (x43 x96 x96)) (and (= x7 (x43 x59 x96)) (= x59 (x43 x41 x41)))) (= x41 (x43 x96 x143)))))
(assert (not (and (and (and (= x96 (x43 x7 x59)) (= x7 (x43 x41 x41))) (= (x43 x59 x59) x143)) (= x41 (x43 x59 x143)))))
(assert (not (and (and (= (x43 x7 x7) x59) (and (= x96 (x43 x41 x41)) (= (x43 x96 x7) x143))) (= (x43 x7 x59) x41))))
(assert (not (and (and (and (= (x43 x41 x41) x143) (= (x43 x143 x59) x96)) (= (x43 x59 x59) x7)) (= x41 (x43 x59 x7)))))
(assert (not (and (and (and (= (x43 x96 x59) x7) (= x96 (x43 x41 x41))) (= (x43 x59 x59) x143)) (= (x43 x59 x143) x41))))
(assert (not (and (and (= x96 (x43 x59 x59)) (and (= x41 (x43 x143 x59)) (= x143 (x43 x7 x7)))) (= (x43 x59 x96) x7))))
(assert (not (and (and (= (x43 x96 x96) x7) (and (= x41 (x43 x143 x96)) (= (x43 x59 x59) x143))) (= x59 (x43 x96 x7)))))
(assert (not (and (and (and (= x59 (x43 x7 x7)) (= x143 (x43 x59 x41))) (= x96 (x43 x41 x41))) (= x7 (x43 x41 x96)))))
(assert (not (and (= (x43 x59 x41) x143) (and (and (= (x43 x7 x59) x96) (= x7 (x43 x143 x143))) (= x41 (x43 x59 x59))))))
(assert (not (and (and (and (= (x43 x7 x96) x143) (= (x43 x41 x41) x7)) (= x59 (x43 x96 x96))) (= (x43 x96 x59) x41))))
(assert (not (and (and (= x59 (x43 x7 x7)) (and (= x41 (x43 x96 x96)) (= x143 (x43 x41 x7)))) (= (x43 x7 x59) x96))))
(assert (not (and (= (x43 x96 x41) x7) (and (and (= (x43 x7 x7) x59) (= (x43 x59 x96) x143)) (= x41 (x43 x96 x96))))))
(assert (not (and (and (= x41 (x43 x143 x143)) (and (= x96 (x43 x7 x143)) (= x7 (x43 x59 x59)))) (= x59 (x43 x143 x41)))))
(assert (not (and (= x59 (x43 x7 x143)) (and (= (x43 x7 x7) x143) (and (= x41 (x43 x59 x59)) (= (x43 x41 x7) x96))))))
(assert (not (and (and (and (= x41 (x43 x59 x7)) (= x59 (x43 x96 x96))) (= x143 (x43 x7 x7))) (= x96 (x43 x7 x143)))))
(assert (not (and (and (and (= x7 (x43 x96 x59)) (= x96 (x43 x143 x143))) (= x41 (x43 x59 x59))) (= x143 (x43 x59 x41)))))
(assert (not (and (= (x43 x7 x41) x143) (and (and (= x96 (x43 x143 x143)) (= (x43 x96 x7) x59)) (= x41 (x43 x7 x7))))))
(assert (not (and (= x41 (x43 x143 x59)) (and (= x59 (x43 x143 x143)) (and (= (x43 x7 x143) x96) (= (x43 x41 x41) x7))))))
(assert (not (and (and (= x59 (x43 x41 x41)) (and (= x143 (x43 x7 x41)) (= (x43 x96 x96) x7))) (= (x43 x41 x59) x96))))
(assert (not (and (= x96 (x43 x143 x7)) (and (and (= x59 (x43 x96 x96)) (= x41 (x43 x59 x143))) (= x7 (x43 x143 x143))))))
(assert (not (and (and (and (= x143 (x43 x96 x41)) (= x96 (x43 x59 x59))) (= (x43 x41 x41) x7)) (= x59 (x43 x41 x7)))))
(assert (not (and (and (= (x43 x7 x7) x143) (and (= (x43 x41 x41) x96) (= x59 (x43 x96 x7)))) (= (x43 x7 x143) x41))))
(assert (not (and (= (x43 x59 x41) x7) (and (= x41 (x43 x59 x59)) (and (= (x43 x7 x7) x96) (= x143 (x43 x96 x59)))))))
(assert (not (and (= x143 (x43 x96 x41)) (and (and (= x59 (x43 x7 x96)) (= (x43 x143 x143) x7)) (= (x43 x96 x96) x41)))))
(assert (not (and (= (x43 x41 x59) x96) (and (and (= (x43 x143 x41) x7) (= (x43 x96 x96) x143)) (= (x43 x41 x41) x59)))))
(assert (not (and (and (and (= (x43 x59 x59) x96) (= x41 (x43 x96 x7))) (= x143 (x43 x7 x7))) (= (x43 x7 x143) x59))))
(assert (not (and (and (and (= (x43 x41 x41) x7) (= (x43 x7 x59) x143)) (= (x43 x59 x59) x96)) (= (x43 x59 x96) x41))))
(assert (not (and (and (and (= x7 (x43 x96 x41)) (= x96 (x43 x143 x143))) (= x59 (x43 x41 x41))) (= (x43 x41 x59) x143))))
(assert (not (and (= (x43 x143 x41) x7) (and (= x41 (x43 x143 x143)) (and (= (x43 x7 x7) x59) (= x96 (x43 x59 x143)))))))
(assert (not (and (= (x43 x96 x7) x143) (and (and (= (x43 x41 x96) x59) (= (x43 x143 x143) x41)) (= (x43 x96 x96) x7)))))
(assert (not (and (= (x43 x59 x7) x96) (and (and (= (x43 x96 x96) x143) (= (x43 x143 x59) x41)) (= x7 (x43 x59 x59))))))
(assert (not (and (and (= x41 (x43 x143 x143)) (and (= (x43 x96 x143) x7) (= x96 (x43 x59 x59)))) (= x59 (x43 x143 x41)))))
(assert (not (and (= x59 (x43 x7 x96)) (and (= x96 (x43 x7 x7)) (and (= x41 (x43 x143 x7)) (= (x43 x59 x59) x143))))))
(assert (not (and (and (and (= (x43 x7 x143) x41) (= x7 (x43 x96 x96))) (= (x43 x143 x143) x59)) (= x96 (x43 x143 x59)))))
(assert (not (and (= x7 (x43 x41 x59)) (and (and (= x143 (x43 x96 x41)) (= x96 (x43 x7 x7))) (= x59 (x43 x41 x41))))))
(assert (not (and (and (and (= (x43 x143 x143) x59) (= x96 (x43 x59 x41))) (= x7 (x43 x41 x41))) (= x143 (x43 x41 x7)))))
(assert (not (and (and (= (x43 x143 x143) x41) (and (= (x43 x96 x96) x7) (= x59 (x43 x7 x143)))) (= (x43 x143 x41) x96))))
(assert (not (and (= x59 (x43 x96 x143)) (and (= (x43 x96 x96) x143) (and (= x41 (x43 x59 x59)) (= x7 (x43 x41 x96)))))))
(assert (not (and (= x96 (x43 x59 x7)) (and (= (x43 x59 x59) x7) (and (= x41 (x43 x96 x96)) (= x143 (x43 x41 x59)))))))
(assert (not (and (and (and (= (x43 x59 x59) x143) (= (x43 x143 x41) x7)) (= x96 (x43 x41 x41))) (= x59 (x43 x41 x96)))))
(assert (and (and (not (= (x43 x59 x59) x59)) (and (and (not (= x143 (x43 x143 x143))) (not (= x96 (x43 x96 x96)))) (not (= (x43 x41 x41) x41)))) (not (= (x43 x7 x7) x7))))
(assert (or (or (or (and (and (and (and (not (= (x43 (x43 x41 x96) x41) x96)) (not (= x143 (x43 (x43 x41 x143) x41)))) (not (= (x43 (x43 x41 x41) x41) x41))) (not (= (x43 (x43 x41 x59) x41) x59))) (not (= x7 (x43 (x43 x41 x7) x41)))) (or (and (and (not (= (x43 (x43 x143 x59) x143) x59)) (and (not (= x41 (x43 (x43 x143 x41) x143))) (and (not (= x96 (x43 (x43 x143 x96) x143))) (not (= (x43 (x43 x143 x143) x143) x143))))) (not (= x7 (x43 (x43 x143 x7) x143)))) (and (not (= x7 (x43 (x43 x96 x7) x96))) (and (not (= (x43 (x43 x96 x59) x96) x59)) (and (and (not (= x96 (x43 (x43 x96 x96) x96))) (not (= (x43 (x43 x96 x143) x96) x143))) (not (= x41 (x43 (x43 x96 x41) x96)))))))) (and (and (not (= x59 (x43 (x43 x59 x59) x59))) (and (and (not (= x143 (x43 (x43 x59 x143) x59))) (not (= x96 (x43 (x43 x59 x96) x59)))) (not (= x41 (x43 (x43 x59 x41) x59))))) (not (= x7 (x43 (x43 x59 x7) x59))))) (and (not (= x7 (x43 (x43 x7 x7) x7))) (and (not (= (x43 (x43 x7 x59) x7) x59)) (and (and (not (= (x43 (x43 x7 x96) x7) x96)) (not (= x143 (x43 (x43 x7 x143) x7)))) (not (= x41 (x43 (x43 x7 x41) x7))))))))
(assert (not (and (= x96 (x43 x41 x143)) (and (= (x43 x41 x41) x143) (and (= x7 (x43 x59 x41)) (= x59 (x43 x96 x96)))))))
(assert (not (and (and (= x59 (x43 x41 x41)) (and (= (x43 x143 x143) x7) (= x96 (x43 x7 x41)))) (= x143 (x43 x41 x59)))))
(assert (not (and (and (= (x43 x59 x59) x96) (and (= x7 (x43 x143 x143)) (= x41 (x43 x7 x59)))) (= (x43 x59 x96) x143))))
(assert (let ((x48 (x43 x41 x41)) (x54 (x43 x59 x59)) (x95 (x43 x143 x143)) (x71 (x43 x96 x96)) (x20 (x43 x7 x7))) (or (or (= x59 (x43 x54 x54)) (or (or (= x96 (x43 x71 x71)) (= x143 (x43 x95 x95))) (= (x43 x48 x48) x41))) (= x7 (x43 x20 x20)))))
(assert (not (and (= x7 (x43 x143 x59)) (and (= (x43 x143 x143) x59) (and (= (x43 x96 x143) x41) (= x96 (x43 x7 x7)))))))
(assert (not (and (and (and (= (x43 x96 x96) x7) (= x59 (x43 x7 x41))) (= (x43 x41 x41) x143)) (= (x43 x41 x143) x96))))
(assert (not (and (and (and (= x7 (x43 x59 x59)) (= (x43 x7 x41) x96)) (= x143 (x43 x41 x41))) (= (x43 x41 x143) x59))))
(assert (not (and (= (x43 x41 x7) x143) (and (= x7 (x43 x41 x41)) (and (= (x43 x143 x143) x96) (= x59 (x43 x96 x41)))))))
(assert (not (and (and (= (x43 x59 x59) x143) (and (= (x43 x7 x7) x96) (= (x43 x96 x59) x41))) (= (x43 x59 x143) x7))))
(assert (not (and (= (x43 x96 x41) x59) (and (= x41 (x43 x96 x96)) (and (= (x43 x143 x96) x7) (= x143 (x43 x59 x59)))))))
(assert (not (and (= x59 (x43 x143 x7)) (and (= (x43 x143 x143) x7) (and (= (x43 x59 x59) x41) (= (x43 x41 x143) x96))))))
(assert (not (and (= (x43 x59 x41) x96) (and (and (= x143 (x43 x7 x59)) (= (x43 x96 x96) x7)) (= (x43 x59 x59) x41)))))
(assert (not (and (= (x43 x41 x7) x96) (and (and (= (x43 x96 x96) x143) (= (x43 x143 x41) x59)) (= x7 (x43 x41 x41))))))
(assert (not (and (= x59 (x43 x41 x7)) (and (= (x43 x41 x41) x7) (and (= x96 (x43 x143 x41)) (= (x43 x59 x59) x143))))))
(assert (not (and (and (= (x43 x7 x7) x59) (and (= (x43 x143 x7) x41) (= x143 (x43 x96 x96)))) (= (x43 x7 x59) x96))))
(assert (let ((x18 (x43 x41 x96)) (x19 (x43 x59 x41)) (x138 (x43 x96 x41)) (x3 (x43 x59 x96)) (x17 (x43 x59 x7)) (x20 (x43 x143 x7)) (x82 (x43 x96 x7)) (x112 (x43 x41 x41)) (x34 (x43 x7 x143)) (x13 (x43 x41 x143)) (x54 (x43 x143 x59)) (x139 (x43 x41 x59)) (x98 (x43 x59 x59)) (x153 (x43 x7 x96)) (x118 (x43 x59 x143)) (x116 (x43 x7 x59)) (x142 (x43 x41 x7)) (x95 (x43 x143 x143)) (x44 (x43 x96 x143)) (x84 (x43 x96 x59)) (x93 (x43 x7 x41)) (x48 (x43 x143 x41)) (x129 (x43 x96 x96)) (x71 (x43 x143 x96)) (x28 (x43 x7 x7))) (and (and (and (and (and (and (and (and (or (or (or (= x95 x41) (or (= x95 x96) (= x95 x143))) (= x59 x95)) (= x95 x7)) (or (= x71 x7) (or (= x59 x71) (or (= x71 x41) (or (= x71 x143) (= x96 x71)))))) (or (or (or (= x48 x41) (or (= x48 x96) (= x143 x48))) (= x59 x48)) (= x7 x48))) (or (or (or (= x41 x54) (or (= x54 x143) (= x54 x96))) (= x54 x59)) (= x54 x7))) (or (= x20 x7) (or (or (= x41 x20) (or (= x96 x20) (= x143 x20))) (= x20 x59)))) (and (or (= x82 x7) (or (= x59 x82) (or (or (= x82 x96) (= x82 x143)) (= x41 x82)))) (and (and (or (or (= x59 x138) (or (= x41 x138) (or (= x138 x96) (= x143 x138)))) (= x7 x138)) (and (or (= x7 x129) (or (= x59 x129) (or (= x41 x129) (or (= x129 x143) (= x129 x96))))) (or (= x44 x7) (or (= x44 x59) (or (= x44 x41) (or (= x44 x143) (= x96 x44))))))) (or (or (= x59 x84) (or (= x41 x84) (or (= x96 x84) (= x143 x84)))) (= x84 x7))))) (and (or (or (or (= x41 x142) (or (= x143 x142) (= x142 x96))) (= x142 x59)) (= x7 x142)) (and (or (= x139 x7) (or (= x59 x139) (or (= x139 x41) (or (= x96 x139) (= x143 x139))))) (and (or (or (= x59 x112) (or (or (= x112 x96) (= x143 x112)) (= x112 x41))) (= x112 x7)) (and (or (or (or (or (= x18 x96) (= x18 x143)) (= x41 x18)) (= x18 x59)) (= x7 x18)) (or (= x7 x13) (or (or (= x13 x41) (or (= x96 x13) (= x13 x143))) (= x59 x13)))))))) (and (and (and (and (or (or (= x59 x3) (or (= x41 x3) (or (= x3 x143) (= x96 x3)))) (= x3 x7)) (or (or (= x59 x118) (or (= x118 x41) (or (= x118 x143) (= x118 x96)))) (= x7 x118))) (or (= x19 x7) (or (= x19 x59) (or (or (= x19 x96) (= x143 x19)) (= x41 x19))))) (or (= x98 x7) (or (or (or (= x98 x96) (= x98 x143)) (= x41 x98)) (= x98 x59)))) (or (= x17 x7) (or (or (= x41 x17) (or (= x17 x143) (= x96 x17))) (= x59 x17))))) (and (and (and (or (or (or (= x41 x93) (or (= x96 x93) (= x143 x93))) (= x59 x93)) (= x7 x93)) (and (or (or (= x59 x34) (or (= x34 x41) (or (= x34 x143) (= x34 x96)))) (= x7 x34)) (or (or (= x59 x153) (or (or (= x153 x143) (= x96 x153)) (= x41 x153))) (= x7 x153)))) (or (= x116 x7) (or (= x59 x116) (or (= x116 x41) (or (= x96 x116) (= x143 x116)))))) (or (= x28 x7) (or (or (or (= x96 x28) (= x28 x143)) (= x28 x41)) (= x59 x28)))))))
(assert (or (and (and (and (not (= (x43 x7 (x43 x7 x41)) x41)) (and (not (= (x43 x7 (x43 x7 x96)) x96)) (not (= x143 (x43 x7 (x43 x7 x143)))))) (not (= (x43 x7 (x43 x7 x59)) x59))) (not (= (x43 x7 (x43 x7 x7)) x7))) (or (or (and (and (not (= x59 (x43 x41 (x43 x41 x59)))) (and (not (= (x43 x41 (x43 x41 x41)) x41)) (and (not (= (x43 x41 (x43 x41 x96)) x96)) (not (= x143 (x43 x41 (x43 x41 x143))))))) (not (= (x43 x41 (x43 x41 x7)) x7))) (or (and (not (= x7 (x43 x143 (x43 x143 x7)))) (and (not (= x59 (x43 x143 (x43 x143 x59)))) (and (and (not (= x143 (x43 x143 (x43 x143 x143)))) (not (= x96 (x43 x143 (x43 x143 x96))))) (not (= x41 (x43 x143 (x43 x143 x41))))))) (and (not (= x7 (x43 x96 (x43 x96 x7)))) (and (and (and (not (= (x43 x96 (x43 x96 x96)) x96)) (not (= (x43 x96 (x43 x96 x143)) x143))) (not (= (x43 x96 (x43 x96 x41)) x41))) (not (= (x43 x96 (x43 x96 x59)) x59)))))) (and (not (= (x43 x59 (x43 x59 x7)) x7)) (and (and (not (= x41 (x43 x59 (x43 x59 x41)))) (and (not (= (x43 x59 (x43 x59 x96)) x96)) (not (= x143 (x43 x59 (x43 x59 x143)))))) (not (= (x43 x59 (x43 x59 x59)) x59)))))))
(assert (not (and (and (= (x43 x143 x143) x59) (and (= x41 (x43 x7 x7)) (= x96 (x43 x41 x143)))) (= x7 (x43 x143 x59)))))
(assert (not (and (= x41 (x43 x143 x7)) (and (and (= (x43 x59 x143) x96) (= (x43 x41 x41) x59)) (= (x43 x143 x143) x7)))))
(assert (let ((x24 (x43 x7 x143)) (x136 (x43 x96 x143)) (x4 (x43 x7 x41)) (x11 (x43 x41 x7)) (x1 (x43 x41 x41)) (x37 (x43 x143 x59)) (x78 (x43 x41 x96)) (x128 (x43 x143 x143)) (x145 (x43 x143 x41)) (x146 (x43 x96 x59)) (x105 (x43 x59 x59)) (x21 (x43 x96 x7)) (x52 (x43 x41 x143)) (x135 (x43 x96 x41)) (x40 (x43 x143 x7)) (x83 (x43 x143 x96)) (x117 (x43 x59 x143)) (x5 (x43 x7 x59)) (x110 (x43 x41 x59)) (x126 (x43 x59 x96)) (x61 (x43 x96 x96)) (x148 (x43 x7 x96)) (x16 (x43 x59 x7)) (x58 (x43 x59 x41)) (x106 (x43 x7 x7))) (let ((x38 (= x61 x41)) (x23 (= x128 x7)) (x98 (= x148 x143)) (x88 (= x41 x78)) (x77 (= x58 x7)) (x75 (= x126 x7)) (x57 (= x83 x7)) (x149 (= x7 x24)) (x65 (= x41 x40)) (x156 (= x145 x41)) (x120 (= x83 x41)) (x124 (= x96 x106)) (x25 (= x1 x96)) (x133 (= x61 x96)) (x67 (= x105 x41)) (x134 (= x59 x1)) (x129 (= x78 x143)) (x81 (= x135 x7)) (x79 (= x117 x59)) (x122 (= x7 x145)) (x94 (= x21 x7)) (x30 (= x96 x126)) (x154 (= x59 x11)) (x73 (= x126 x41)) (x114 (= x7 x106)) (x155 (= x59 x110)) (x63 (= x105 x7)) (x84 (= x143 x1)) (x27 (= x148 x41)) (x55 (= x148 x7)) (x119 (= x5 x59)) (x158 (= x41 x24)) (x82 (= x117 x143)) (x51 (= x136 x41)) (x107 (= x96 x24)) (x70 (= x110 x96)) (x113 (= x59 x21)) (x93 (= x5 x143)) (x101 (= x59 x24)) (x125 (= x4 x41)) (x121 (= x7 x136)) (x137 (= x7 x1)) (x85 (= x41 x58)) (x76 (= x41 x106)) (x132 (= x117 x7)) (x71 (= x136 x143)) (x90 (= x96 x37)) (x115 (= x16 x7)) (x100 (= x40 x7)) (x68 (= x146 x96)) (x72 (= x41 x1)) (x91 (= x135 x41)) (x60 (= x96 x52)) (x97 (= x37 x59)) (x2 (= x96 x11)) (x19 (= x40 x143)) (x131 (= x96 x58)) (x56 (= x41 x16)) (x80 (= x59 x145)) (x45 (= x41 x128)) (x53 (= x41 x21)) (x35 (= x96 x78)) (x64 (= x146 x59)) (x20 (= x143 x52)) (x44 (= x143 x145)) (x18 (= x126 x143)) (x157 (= x59 x135)) (x108 (= x5 x7)) (x3 (= x143 x24)) (x140 (= x59 x105)) (x152 (= x16 x96)) (x74 (= x7 x4)) (x99 (= x37 x7)) (x112 (= x146 x143)) (x46 (= x96 x40)) (x147 (= x146 x41)) (x22 (= x145 x96)) (x109 (= x59 x4)) (x151 (= x110 x41)) (x29 (= x4 x96)) (x48 (= x83 x143)) (x14 (= x135 x96)) (x153 (= x143 x11)) (x17 (= x21 x143)) (x62 (= x96 x21)) (x54 (= x61 x143)) (x8 (= x11 x41)) (x28 (= x143 x106)) (x95 (= x128 x143)) (x150 (= x52 x7)) (x103 (= x59 x83)) (x130 (= x61 x59)) (x33 (= x59 x40)) (x127 (= x16 x59)) (x111 (= x59 x136)) (x138 (= x143 x135)) (x141 (= x96 x136)) (x104 (= x5 x96)) (x102 (= x7 x146)) (x144 (= x52 x41)) (x6 (= x128 x96)) (x42 (= x7 x61)) (x116 (= x143 x16)) (x39 (= x7 x11)) (x142 (= x143 x110)) (x15 (= x105 x96)) (x34 (= x143 x4)) (x89 (= x59 x58)) (x31 (= x96 x83)) (x50 (= x117 x41)) (x12 (= x7 x110)) (x26 (= x59 x106)) (x86 (= x128 x59)) (x92 (= x59 x78)) (x69 (= x78 x7)) (x13 (= x37 x143)) (x118 (= x143 x105)) (x47 (= x41 x37)) (x139 (= x58 x143)) (x49 (= x96 x148)) (x9 (= x52 x59)) (x66 (= x96 x117)) (x32 (= x41 x5)) (x87 (= x126 x59)) (x36 (= x148 x59))) (and (and (or (or (and x26 x26) (or (or (or (and x36 x113) (and x101 x33)) (and x109 x154)) (and x119 x127))) (or (or (or (or (or (or (and x157 x92) (or (and x103 x111) (and x130 x130))) (and x87 x64)) (and x113 x36)) (or (or (or (or (and x86 x86) (and x111 x103)) (and x80 x9)) (and x79 x97)) (and x101 x33))) (or (or (or (and x134 x134) (or (and x80 x9) (and x157 x92))) (and x155 x89)) (and x109 x154))) (or (and x119 x127) (or (and x140 x140) (or (or (and x64 x87) (and x79 x97)) (and x89 x155)))))) (and (and (or (or (or (or (or (or (and x66 x90) (and x30 x68)) (and x131 x70)) (and x15 x15)) (and x104 x152)) (or (or (or (or (or (and x14 x35) (or (and x133 x133) (and x31 x141))) (and x30 x68)) (and x62 x49)) (or (or (or (or (and x141 x31) (and x6 x6)) (and x60 x22)) (and x90 x66)) (and x107 x46))) (or (or (and x131 x70) (or (or (and x60 x22) (and x14 x35)) (and x25 x25))) (and x2 x29)))) (or (and x124 x124) (or (and x104 x152) (or (or (and x49 x62) (and x107 x46)) (and x2 x29))))) (or (or (and x28 x28) (or (and x93 x116) (or (or (and x19 x3) (and x17 x98)) (and x153 x34)))) (or (or (and x93 x116) (or (and x118 x118) (or (and x139 x142) (or (and x18 x112) (and x13 x82))))) (or (or (or (and x19 x3) (or (or (and x44 x20) (or (and x71 x48) (and x95 x95))) (and x82 x13))) (or (and x17 x98) (or (and x112 x18) (or (or (and x71 x48) (and x54 x54)) (and x129 x138))))) (or (or (or (and x84 x84) (or (and x44 x20) (and x129 x138))) (and x142 x139)) (and x153 x34)))))) (or (or (or (and x32 x56) (or (and x67 x67) (or (or (and x73 x147) (and x47 x50)) (and x85 x151)))) (or (or (or (or (or (or (and x120 x51) (and x45 x45)) (and x156 x144)) (and x47 x50)) (and x158 x65)) (or (and x53 x27) (or (and x147 x73) (or (and x91 x88) (or (and x38 x38) (and x120 x51)))))) (or (and x8 x125) (or (or (or (and x91 x88) (and x144 x156)) (and x72 x72)) (and x151 x85))))) (or (and x76 x76) (or (or (or (and x65 x158) (and x27 x53)) (and x8 x125)) (and x32 x56)))))) (or (or (or (or (or (or (or (or (and x121 x57) (and x42 x42)) (and x69 x81)) (and x102 x75)) (and x55 x94)) (or (and x100 x149) (or (and x132 x99) (or (or (and x121 x57) (and x23 x23)) (and x122 x150))))) (or (and x74 x39) (or (and x12 x77) (or (or (and x122 x150) (and x69 x81)) (and x137 x137))))) (or (or (or (and x12 x77) (or (and x99 x132) (and x75 x102))) (and x63 x63)) (and x108 x115))) (or (and x114 x114) (or (and x108 x115) (or (or (and x149 x100) (and x94 x55)) (and x39 x74)))))))))
(assert (not (and (and (and (= x41 (x43 x59 x59)) (= (x43 x41 x7) x143)) (= x96 (x43 x7 x7))) (= x59 (x43 x7 x96)))))
(assert (not (and (and (= x96 (x43 x143 x143)) (and (= (x43 x7 x7) x59) (= (x43 x59 x143) x41))) (= (x43 x143 x96) x7))))
(assert (not (and (= x41 (x43 x96 x143)) (and (and (= (x43 x7 x96) x59) (= x7 (x43 x41 x41))) (= x143 (x43 x96 x96))))))
(assert (let ((x84 (x43 x41 x41)) (x18 (x43 x59 x96)) (x118 (x43 x59 x59)) (x48 (x43 x143 x96)) (x112 (x43 x96 x59)) (x142 (x43 x41 x59)) (x44 (x43 x143 x41)) (x3 (x43 x7 x143)) (x116 (x43 x59 x7)) (x71 (x43 x96 x143)) (x82 (x43 x59 x143)) (x54 (x43 x96 x96)) (x28 (x43 x7 x7)) (x95 (x43 x143 x143)) (x13 (x43 x143 x59)) (x98 (x43 x7 x96)) (x17 (x43 x96 x7)) (x34 (x43 x7 x41)) (x19 (x43 x143 x7)) (x139 (x43 x59 x41)) (x20 (x43 x41 x143)) (x93 (x43 x7 x59)) (x153 (x43 x41 x7)) (x129 (x43 x41 x96)) (x138 (x43 x96 x41))) (or (or (or (or (and (and (and (= x138 x129) (and (= x54 x54) (= x48 x71))) (= x112 x18)) (= x98 x17)) (and (and (and (and (= x71 x48) (= x95 x95)) (= x20 x44)) (= x13 x82)) (= x19 x3))) (and (and (= x139 x142) (and (= x84 x84) (and (= x20 x44) (= x138 x129)))) (= x153 x34))) (and (and (and (and (= x13 x82) (= x18 x112)) (= x142 x139)) (= x118 x118)) (= x93 x116))) (and (and (= x116 x93) (and (= x34 x153) (and (= x3 x19) (= x17 x98)))) (= x28 x28)))))
(assert (or (or (or (or (and (not (= x143 (x43 (x43 x7 x143) x7))) (and (and (and (not (= (x43 (x43 x143 x143) x143) x143)) (not (= x143 (x43 (x43 x96 x143) x96)))) (not (= x143 (x43 (x43 x41 x143) x41)))) (not (= x143 (x43 (x43 x59 x143) x59))))) (and (and (and (and (not (= (x43 (x43 x96 x96) x96) x96)) (not (= (x43 (x43 x143 x96) x143) x96))) (not (= (x43 (x43 x41 x96) x41) x96))) (not (= (x43 (x43 x59 x96) x59) x96))) (not (= x96 (x43 (x43 x7 x96) x7))))) (and (and (not (= x41 (x43 (x43 x59 x41) x59))) (and (not (= x41 (x43 (x43 x41 x41) x41))) (and (not (= x41 (x43 (x43 x143 x41) x143))) (not (= x41 (x43 (x43 x96 x41) x96)))))) (not (= x41 (x43 (x43 x7 x41) x7))))) (and (and (not (= (x43 (x43 x59 x59) x59) x59)) (and (not (= x59 (x43 (x43 x41 x59) x41))) (and (not (= x59 (x43 (x43 x143 x59) x143))) (not (= (x43 (x43 x96 x59) x96) x59))))) (not (= (x43 (x43 x7 x59) x7) x59)))) (and (not (= x7 (x43 (x43 x7 x7) x7))) (and (and (and (not (= (x43 (x43 x96 x7) x96) x7)) (not (= x7 (x43 (x43 x143 x7) x143)))) (not (= (x43 (x43 x41 x7) x41) x7))) (not (= (x43 (x43 x59 x7) x59) x7))))))
(assert (not (and (= x143 (x43 x7 x96)) (and (= (x43 x7 x7) x96) (and (= x41 (x43 x143 x143)) (= (x43 x41 x7) x59))))))
(assert (not (and (and (and (= (x43 x7 x96) x41) (= (x43 x59 x59) x7)) (= x143 (x43 x96 x96))) (= (x43 x96 x143) x59))))
(assert (not (and (= (x43 x59 x143) x96) (and (= (x43 x59 x59) x143) (and (= (x43 x41 x59) x7) (= (x43 x96 x96) x41))))))
(assert (not (and (= (x43 x41 x96) x7) (and (= (x43 x41 x41) x96) (and (= (x43 x143 x41) x59) (= (x43 x7 x7) x143))))))
(assert (not (and (and (= (x43 x96 x96) x59) (and (= x143 (x43 x7 x7)) (= x41 (x43 x143 x96)))) (= x7 (x43 x96 x59)))))
(assert (and (and (and (and (and (not (= x96 x59)) (and (not (= x96 x41)) (and (not (= x7 x143)) (and (and (not (= x96 x143)) (not (= x41 x143))) (not (= x143 x59)))))) (not (= x96 x7))) (not (= x41 x59))) (not (= x7 x41))) (not (= x59 x7))))
(assert (not (and (and (and (= (x43 x41 x143) x59) (= x41 (x43 x7 x7))) (= (x43 x143 x143) x96)) (= (x43 x143 x96) x7))))
(assert (not (and (= x7 (x43 x59 x143)) (and (= x143 (x43 x59 x59)) (and (= (x43 x41 x59) x96) (= x41 (x43 x7 x7)))))))
(assert (not (and (= (x43 x143 x41) x7) (and (and (= (x43 x7 x7) x96) (= (x43 x96 x143) x59)) (= x41 (x43 x143 x143))))))
(assert (not (and (= (x43 x143 x96) x41) (and (and (= (x43 x41 x41) x59) (= (x43 x59 x143) x7)) (= (x43 x143 x143) x96)))))
(assert (not (and (= (x43 x96 x41) x7) (and (= x41 (x43 x96 x96)) (and (= (x43 x143 x96) x59) (= x143 (x43 x7 x7)))))))
(assert (not (and (= x96 (x43 x7 x41)) (and (and (= x143 (x43 x96 x96)) (= (x43 x143 x7) x59)) (= (x43 x7 x7) x41)))))
(assert (or (or (= (x43 (x43 x59 x59) x59) x59) (or (= x41 (x43 (x43 x41 x41) x41)) (or (= x143 (x43 (x43 x143 x143) x143)) (= x96 (x43 (x43 x96 x96) x96))))) (= (x43 (x43 x7 x7) x7) x7)))
(assert (not (and (and (and (= (x43 x41 x59) x96) (= x41 (x43 x143 x143))) (= x7 (x43 x59 x59))) (= x143 (x43 x59 x7)))))
(assert (not (and (= x96 (x43 x143 x59)) (and (and (= x7 (x43 x41 x143)) (= x41 (x43 x96 x96))) (= (x43 x143 x143) x59)))))
(check-sat)
(exit)
